p cnf 15 29
1 2 3 0
4 5 6 0
7 8 9 0
10 11 12 0
13 14 15 0
-1 -2 0
-1 -3 0
-2 -3 0
-4 -5 0
-4 -6 0
-5 -6 0
-7 -8 0
-7 -9 0
-8 -9 0
-10 -11 0
-10 -12 0
-11 -12 0
-13 -14 0
-13 -15 0
-14 -15 0
-1 -10 0
-10 -1 0
-13 -1 0
-2 -11 0
-11 -2 0
-14 -2 0
-3 -12 0
-12 -3 0
-15 -3 0
